1 0
2 7063
3 51
4 23
5 3074
6 349
7 1047
8 698
9 3001
10 31
11 1135
12 21611
13 57
14 51
15 551
16 179
17 6
18 528
19 2832
20 1514
21 889
22 2554
23 1215
24 1810
25 3050
26 4
27 1563
28 741
29 1532
30 709
31 1022
32 883
33 1689
34 10235
35 29
36 2894
37 450
38 411
39 207
40 496
41 1021
42 117
43 46
44 8
45 18
46 561
47 1877
48 3542
49 801
50 967
51 62
52 1366
53 230
54 4
55 12
56 145
57 7149
58 2250
59 383
60 134
61 1947
62 182
63 3934
64 468
65 18
66 133
67 2340
68 754
69 1264
70 806
71 3665
72 2452